
;this file is automatically generated: Sun Oct 25 10:43:48 CST 2020

;declarations generated

(declare-fun oclExcludes ( Int Int) Bool)
(declare-fun type_77b8fa16_d554_464f_9a0f_16364450e4d9_Class19 ( Int) Bool)
(declare-fun Cardinality ( Int) Int)
(declare-fun type_77b8fa16_d554_464f_9a0f_16364450e4d9_Class21 ( Int) Bool)
(declare-fun oclSelect ( Int Bool) Int)
(declare-fun class21_Class21IntAttr1 ( Int) Int)
(declare-fun obj_73008af6_f799_4619_91f1_1487accea475 ( Int) Int)
(declare-fun Enum0 ( Int) Int)
(declare-fun Enum1 ( Int) Int)
(declare-fun container_ ( Int) Int)
(declare-fun oclIncludes ( Int Int) Bool)
(declare-fun ObjAt ( Int Int) Int)

;formula(s) generated
(assert (! (forall ((c1 Int)) (=> (and ( type_77b8fa16_d554_464f_9a0f_16364450e4d9_Class21 c1 )  ( type_77b8fa16_d554_464f_9a0f_16364450e4d9_Class19 c1 ) ) (< ( class21_Class21IntAttr1 ( obj_73008af6_f799_4619_91f1_1487accea475 c1 )  )  18))):named l0))
(assert (exists ((o Int)) (and ( type_77b8fa16_d554_464f_9a0f_16364450e4d9_Class21 ( obj_73008af6_f799_4619_91f1_1487accea475 o )  )  ( type_77b8fa16_d554_464f_9a0f_16364450e4d9_Class19 ( obj_73008af6_f799_4619_91f1_1487accea475 o )  ) )))

 ;end of formula 